0	428	299	0	200
1	60	20	0	200
2	199	18	0	200
3	251	311	0	200
4	418	474	0	200
5	96	321	0	200
6	6	320	0	200
7	0	187	0	200
8	298	238	0	200
9	340	437	0	200
10	225	83	0	200
11	131	487	0	200
12	317	311	0	200
13	46	285	0	200
14	327	252	0	200
15	319	346	0	200
16	375	323	0	200
17	447	201	0	200
18	380	43	0	200
19	423	495	0	200
20	93	55	0	200
21	166	166	0	200
22	169	230	0	200
23	304	350	0	200
24	98	479	0	200
